
Gurobi 10.0.1 (win64) logging started Mon May  1 19:24:16 2023

Set parameter LogFile to value "logFiles/N-1L-C/N-1L-14U-19F-23V-180D-varprod.log"
Gurobi Optimizer version 10.0.1 build v10.0.1rc0 (win64)

CPU model: Intel(R) Core(TM) i7-10700 CPU @ 2.90GHz, instruction set [SSE2|AVX|AVX2]
Thread count: 8 physical cores, 16 logical processors, using up to 16 threads

Optimize a model with 130765 rows, 1509086 columns and 9536759 nonzeros
Model fingerprint: 0x187452e3
Variable types: 4575 continuous, 1504511 integer (1504511 binary)
Coefficient statistics:
  Matrix range     [1e+00, 2e+05]
  Objective range  [4e+01, 3e+07]
  Bounds range     [1e+00, 1e+00]
  RHS range        [1e+00, 5e+06]
Presolve removed 70604 rows and 61068 columns (presolve time = 5s) ...
Presolve removed 72228 rows and 61130 columns (presolve time = 10s) ...
Presolve removed 72258 rows and 61170 columns (presolve time = 15s) ...
Presolve removed 72880 rows and 61738 columns
Presolve time: 16.60s
Presolved: 57885 rows, 1447348 columns, 8427191 nonzeros
Variable types: 2956 continuous, 1444392 integer (1444392 binary)
Deterministic concurrent LP optimizer: primal simplex, dual simplex, and barrier
Showing barrier log only...

Root barrier log...

Ordering time: 4.44s

Barrier statistics:
 AA' NZ     : 3.857e+06
 Factor NZ  : 1.472e+07 (roughly 700 MB of memory)
 Factor Ops : 2.603e+10 (less than 1 second per iteration)
 Threads    : 5

                  Objective                Residual
Iter       Primal          Dual         Primal    Dual     Compl     Time
   0  -9.81638474e+16  1.93118740e+12  1.28e+10 5.49e+04  3.53e+11    36s
   1  -1.91749702e+16  3.56470217e+12  2.49e+09 1.44e+05  6.94e+10    37s
   2  -4.59846227e+14  2.26206857e+12  6.05e+07 1.86e-09  1.69e+09    39s
   3  -7.44013198e+13  1.57704959e+12  9.79e+06 1.86e-09  2.75e+08    41s
   4  -3.13301137e+13  1.48048963e+12  4.12e+06 1.40e-09  1.16e+08    43s
   5  -1.47240381e+13  1.33214225e+12  1.94e+06 3.73e-09  5.51e+07    44s
   6  -7.37091410e+12  1.04249525e+12  9.70e+05 7.45e-09  2.79e+07    46s
   7  -3.66253789e+12  5.34129088e+11  4.82e+05 2.61e-08  1.41e+07    48s
   8  -3.27785739e+12  1.93943237e+11  4.32e+05 7.45e-08  1.27e+07    50s
   9  -3.18177472e+12  1.96128410e+11  4.19e+05 9.69e-08  1.24e+07    52s
  10  -3.01561349e+12  2.46967728e+10  3.97e+05 2.83e-07  1.17e+07    53s
  11  -2.62645548e+12 -3.56865378e+11  3.46e+05 5.07e-07  1.03e+07    55s
  12  -2.49108041e+12 -5.36839002e+11  3.28e+05 5.81e-07  9.75e+06    57s
  13  -2.31152743e+12 -8.54778421e+11  3.05e+05 4.17e-07  9.11e+06    60s

Barrier performed 13 iterations in 60.07 seconds (73.36 work units)
Time limit reached



Root relaxation: time limit, 0 iterations, 38.94 seconds (18.63 work units)

Explored 1 nodes (0 simplex iterations) in 60.39 seconds (66.14 work units)
Thread count was 16 (of 16 available processors)

Solution count 0

Time limit reached
Best objective -, best bound 1.119223682635e+13, gap -
IIS computation: initial model status unknown, solving to determine model status
Presolve removed 70665 rows and 61745 columns (presolve time = 5s) ...
Presolve removed 72908 rows and 62136 columns (presolve time = 10s) ...
Presolve removed 72908 rows and 62136 columns (presolve time = 15s) ...
Presolve removed 72880 rows and 62108 columns
Presolve time: 17.07s
Presolved: 57885 rows, 1446978 columns, 8424976 nonzeros
Variable types: 2955 continuous, 1444023 integer (1444023 binary)
Deterministic concurrent LP optimizer: primal simplex, dual simplex, and barrier
Showing barrier log only...

Root barrier log...

Ordering time: 3.08s

Barrier statistics:
 AA' NZ     : 3.857e+06
 Factor NZ  : 1.472e+07 (roughly 700 MB of memory)
 Factor Ops : 2.603e+10 (less than 1 second per iteration)
 Threads    : 5

                  Objective                Residual
Iter       Primal          Dual         Primal    Dual     Compl     Time
   0  -0.00000000e+00  1.39312631e+05  1.28e+10 0.00e+00  2.34e+04    37s
   1  -0.00000000e+00  2.57647829e+05  2.29e+09 4.32e-03  4.23e+03    38s
   2  -0.00000000e+00  1.58104965e+05  2.31e+07 1.11e-16  4.26e+01    39s
   3  -0.00000000e+00  1.09827926e+05  6.91e+06 1.11e-16  1.29e+01    41s
   4  -0.00000000e+00  6.34753290e+04  3.97e+06 1.06e-16  4.65e+00    43s
   5  -0.00000000e+00  2.53819301e+04  2.89e+06 2.29e-16  1.48e+00    44s
   6  -0.00000000e+00  1.28771505e+04  1.04e+06 1.54e-16  3.26e-01    46s
   7  -0.00000000e+00  3.11076980e+03  6.25e+05 3.73e-15  1.42e-01    48s
   8  -0.00000000e+00  1.65263297e+03  5.31e+05 2.78e-07  2.25e-01    50s
   9  -0.00000000e+00 -7.44816419e+03  5.24e+05 1.06e-04  1.46e+02    52s
  10* -0.00000000e+00 -1.18394231e+08  1.43e+00 1.30e-10  5.09e-05    54s
  11* -0.00000000e+00 -8.80136706e+13  1.43e-06 1.21e-10  5.10e-11    56s

Barrier performed 11 iterations in 55.78 seconds (78.08 work units)
Infeasible model

Concurrent spin time: 4.12s (can be avoided by choosing Method=3)

Solved with barrier

Root relaxation: infeasible, 0 iterations, 35.83 seconds (26.73 work units)

    Nodes    |    Current Node    |     Objective Bounds      |     Work
 Expl Unexpl |  Obj  Depth IntInf | Incumbent    BestBd   Gap | It/Node Time

     0     0 infeasible    0               - infeasible      -     -   60s

Explored 1 nodes (0 simplex iterations) in 60.21 seconds (78.61 work units)
Thread count was 16 (of 16 available processors)

Solution count 0
No other solutions better than -1e+100

Model is infeasible
Best objective -, best bound -, gap -
IIS runtime: 60.37 seconds (78.61 work units)
